\ LP format - for model browsing. Use MPS format to capture full model detail.
Minimize
  3687 x[1,2] + 984 x[1,3] + 2765 x[1,4] + 4167 x[1,5] + 1581 x[1,6]
   + 3397 x[1,7] + 921 x[1,8] + 2607 x[1,9] + 2807 x[1,10] + 3622 x[1,11]
   + 1029 x[1,12] + 2137 x[1,13] + 500 x[1,14] + 1920 x[1,15]
   + 2765 x[1,16] + 2842 x[1,17] + 2059 x[1,18] + 2209 x[1,19]
   + 1529 x[1,20] + 1272 x[1,21] + 2954 x[1,22] + 2126 x[1,23]
   + 3828 x[1,24] + 4002 x[1,25] + 2830 x[2,3] + 4257 x[2,4] + 6040 x[2,5]
   + 3624 x[2,6] + 509 x[2,7] + 3661 x[2,8] + 1414 x[2,9] + 2200 x[2,10]
   + 6462 x[2,11] + 4701 x[2,12] + 2418 x[2,13] + 4186 x[2,14]
   + 3827 x[2,15] + 6129 x[2,16] + 4242 x[2,17] + 4569 x[2,18]
   + 3006 x[2,19] + 4632 x[2,20] + 3807 x[2,21] + 5345 x[2,22]
   + 4237 x[2,23] + 583 x[2,24] + 7306 x[2,25] + 3190 x[3,4] + 4810 x[3,5]
   + 2012 x[3,6] + 2483 x[3,7] + 1529 x[3,8] + 1640 x[3,9] + 2500 x[3,10]
   + 4500 x[3,11] + 1910 x[3,12] + 1200 x[3,13] + 1442 x[3,14]
   + 2370 x[3,15] + 3736 x[3,16] + 3244 x[3,17] + 2765 x[3,18]
   + 1431 x[3,19] + 2402 x[3,20] + 1868 x[3,21] + 3687 x[3,22]
   + 2692 x[3,23] + 2900 x[3,24] + 4972 x[3,25] + 1800 x[4,5] + 1204 x[4,6]
   + 4304 x[4,7] + 1843 x[4,8] + 4060 x[4,9] + 2118 x[4,10] + 2475 x[4,11]
   + 3269 x[4,12] + 4254 x[4,13] + 2915 x[4,14] + 848 x[4,15]
   + 2846 x[4,16] + 100 x[4,17] + 1100 x[4,18] + 4614 x[4,19]
   + 1824 x[4,20] + 1500 x[4,21] + 1272 x[4,22] + 728 x[4,23]
   + 4716 x[4,24] + 3661 x[4,25] + 2816 x[5,6] + 6103 x[5,7] + 3310 x[5,8]
   + 5842 x[5,9] + 3863 x[5,10] + 1700 x[5,11] + 4313 x[5,12]
   + 5948 x[5,13] + 4140 x[5,14] + 2473 x[5,15] + 2846 x[5,16]
   + 1802 x[5,17] + 2109 x[5,18] + 6239 x[5,19] + 2765 x[5,20]
   + 2954 x[5,21] + 1272 x[5,22] + 2118 x[5,23] + 6512 x[5,24]
   + 3014 x[5,25] + 3544 x[6,7] + 670 x[6,8] + 3101 x[6,9] + 1860 x[6,10]
   + 2846 x[6,11] + 2236 x[6,12] + 3132 x[6,13] + 1802 x[6,14]
   + 360 x[6,15] + 2617 x[6,16] + 1272 x[6,17] + 948 x[6,18] + 3443 x[6,19]
   + 1166 x[6,20] + 400 x[6,21] + 1802 x[6,22] + 707 x[6,23] + 3984 x[6,24]
   + 3720 x[6,25] + 3488 x[7,8] + 948 x[7,9] + 2353 x[7,10] + 6389 x[7,11]
   + 4386 x[7,12] + 1941 x[7,13] + 3889 x[7,14] + 3785 x[7,15]
   + 5953 x[7,16] + 4301 x[7,17] + 4492 x[7,18] + 2517 x[7,19]
   + 4472 x[7,20] + 3676 x[7,21] + 5315 x[7,22] + 4197 x[7,23]
   + 447 x[7,24] + 7155 x[7,25] + 2886 x[8,9] + 2247 x[8,10] + 3014 x[8,11]
   + 1603 x[8,12] + 2716 x[8,13] + 1140 x[8,14] + 1000 x[8,15]
   + 2469 x[8,16] + 1920 x[8,17] + 1236 x[8,18] + 2941 x[8,19]
   + 984 x[8,20] + 360 x[8,21] + 2158 x[8,22] + 1220 x[8,23] + 3935 x[8,24]
   + 3667 x[8,25] + 2441 x[9,10] + 5885 x[9,11] + 3546 x[9,12]
   + 1004 x[9,13] + 3080 x[9,14] + 3401 x[9,15] + 5292 x[9,16]
   + 4079 x[9,17] + 4019 x[9,18] + 1600 x[9,19] + 3860 x[9,20]
   + 3140 x[9,21] + 4904 x[9,22] + 3800 x[9,23] + 1303 x[9,24]
   + 6519 x[9,25] + 4494 x[10,11] + 3765 x[10,12] + 3061 x[10,13]
   + 3238 x[10,14] + 1910 x[10,15] + 4468 x[10,16] + 2088 x[10,17]
   + 2690 x[10,18] + 3605 x[10,19] + 3023 x[10,20] + 2195 x[10,21]
   + 3312 x[10,22] + 2280 x[10,23] + 2716 x[10,24] + 5522 x[10,25]
   + 3361 x[11,12] + 5700 x[11,13] + 3395 x[11,14] + 2640 x[11,15]
   + 1345 x[11,16] + 2545 x[11,17] + 1897 x[11,18] + 5830 x[11,19]
   + 2102 x[11,20] + 2745 x[11,21] + 1204 x[11,22] + 2236 x[11,23]
   + 6830 x[11,24] + 1334 x[11,25] + 2906 x[12,13] + 538 x[12,14]
   + 2500 x[12,15] + 2220 x[12,16] + 3361 x[12,17] + 2302 x[12,18]
   + 2789 x[12,19] + 1562 x[12,20] + 1843 x[12,21] + 3041 x[12,22]
   + 2549 x[12,23] + 4808 x[12,24] + 3400 x[12,25] + 2529 x[13,14]
   + 3478 x[13,15] + 4903 x[13,16] + 4295 x[13,17] + 3945 x[13,18]
   + 608 x[13,19] + 3601 x[13,20] + 3041 x[13,21] + 4866 x[13,22]
   + 3832 x[13,23] + 2247 x[13,24] + 6139 x[13,25] + 2102 x[14,15]
   + 2408 x[14,16] + 3001 x[14,17] + 2051 x[14,18] + 2507 x[14,19]
   + 1389 x[14,20] + 1431 x[14,21] + 2884 x[14,22] + 2220 x[14,23]
   + 4318 x[14,24] + 3634 x[14,25] + 2580 x[15,16] + 921 x[15,17]
   + 781 x[15,18] + 3801 x[15,19] + 1236 x[15,20] + 670 x[15,21]
   + 1529 x[15,22] + 412 x[15,23] + 4220 x[15,24] + 3612 x[15,25]
   + 2941 x[16,17] + 1835 x[16,18] + 4916 x[16,19] + 1500 x[16,20]
   + 2343 x[16,21] + 1800 x[16,22] + 2282 x[16,23] + 6400 x[16,24]
   + 1236 x[16,25] + 1200 x[17,18] + 4664 x[17,19] + 1923 x[17,20]
   + 1581 x[17,21] + 1345 x[17,22] + 824 x[17,23] + 4709 x[17,24]
   + 3744 x[17,25] + 4176 x[18,19] + 761 x[18,20] + 905 x[18,21]
   + 921 x[18,22] + 447 x[18,23] + 4933 x[18,24] + 2831 x[18,25]
   + 3733 x[19,20] + 3289 x[19,21] + 5096 x[19,22] + 4123 x[19,23]
   + 2789 x[19,24] + 6140 x[19,25] + 848 x[20,21] + 1500 x[20,22]
   + 1104 x[20,23] + 4919 x[20,24] + 2683 x[20,25] + 1824 x[21,22]
   + 860 x[21,23] + 4123 x[21,24] + 3498 x[21,25] + 1118 x[22,23]
   + 5748 x[22,24] + 2418 x[22,25] + 4632 x[23,24] + 3252 x[23,25]
   + 7602 x[24,25]
Subject To
 Cardinality: x[1,2] + x[1,3] + x[1,4] + x[1,5] + x[1,6] + x[1,7] + x[1,8]
   + x[1,9] + x[1,10] + x[1,11] + x[1,12] + x[1,13] + x[1,14] + x[1,15]
   + x[1,16] + x[1,17] + x[1,18] + x[1,19] + x[1,20] + x[1,21] + x[1,22]
   + x[1,23] + x[1,24] + x[1,25] + x[2,3] + x[2,4] + x[2,5] + x[2,6]
   + x[2,7] + x[2,8] + x[2,9] + x[2,10] + x[2,11] + x[2,12] + x[2,13]
   + x[2,14] + x[2,15] + x[2,16] + x[2,17] + x[2,18] + x[2,19] + x[2,20]
   + x[2,21] + x[2,22] + x[2,23] + x[2,24] + x[2,25] + x[3,4] + x[3,5]
   + x[3,6] + x[3,7] + x[3,8] + x[3,9] + x[3,10] + x[3,11] + x[3,12]
   + x[3,13] + x[3,14] + x[3,15] + x[3,16] + x[3,17] + x[3,18] + x[3,19]
   + x[3,20] + x[3,21] + x[3,22] + x[3,23] + x[3,24] + x[3,25] + x[4,5]
   + x[4,6] + x[4,7] + x[4,8] + x[4,9] + x[4,10] + x[4,11] + x[4,12]
   + x[4,13] + x[4,14] + x[4,15] + x[4,16] + x[4,17] + x[4,18] + x[4,19]
   + x[4,20] + x[4,21] + x[4,22] + x[4,23] + x[4,24] + x[4,25] + x[5,6]
   + x[5,7] + x[5,8] + x[5,9] + x[5,10] + x[5,11] + x[5,12] + x[5,13]
   + x[5,14] + x[5,15] + x[5,16] + x[5,17] + x[5,18] + x[5,19] + x[5,20]
   + x[5,21] + x[5,22] + x[5,23] + x[5,24] + x[5,25] + x[6,7] + x[6,8]
   + x[6,9] + x[6,10] + x[6,11] + x[6,12] + x[6,13] + x[6,14] + x[6,15]
   + x[6,16] + x[6,17] + x[6,18] + x[6,19] + x[6,20] + x[6,21] + x[6,22]
   + x[6,23] + x[6,24] + x[6,25] + x[7,8] + x[7,9] + x[7,10] + x[7,11]
   + x[7,12] + x[7,13] + x[7,14] + x[7,15] + x[7,16] + x[7,17] + x[7,18]
   + x[7,19] + x[7,20] + x[7,21] + x[7,22] + x[7,23] + x[7,24] + x[7,25]
   + x[8,9] + x[8,10] + x[8,11] + x[8,12] + x[8,13] + x[8,14] + x[8,15]
   + x[8,16] + x[8,17] + x[8,18] + x[8,19] + x[8,20] + x[8,21] + x[8,22]
   + x[8,23] + x[8,24] + x[8,25] + x[9,10] + x[9,11] + x[9,12] + x[9,13]
   + x[9,14] + x[9,15] + x[9,16] + x[9,17] + x[9,18] + x[9,19] + x[9,20]
   + x[9,21] + x[9,22] + x[9,23] + x[9,24] + x[9,25] + x[10,11] + x[10,12]
   + x[10,13] + x[10,14] + x[10,15] + x[10,16] + x[10,17] + x[10,18]
   + x[10,19] + x[10,20] + x[10,21] + x[10,22] + x[10,23] + x[10,24]
   + x[10,25] + x[11,12] + x[11,13] + x[11,14] + x[11,15] + x[11,16]
   + x[11,17] + x[11,18] + x[11,19] + x[11,20] + x[11,21] + x[11,22]
   + x[11,23] + x[11,24] + x[11,25] + x[12,13] + x[12,14] + x[12,15]
   + x[12,16] + x[12,17] + x[12,18] + x[12,19] + x[12,20] + x[12,21]
   + x[12,22] + x[12,23] + x[12,24] + x[12,25] + x[13,14] + x[13,15]
   + x[13,16] + x[13,17] + x[13,18] + x[13,19] + x[13,20] + x[13,21]
   + x[13,22] + x[13,23] + x[13,24] + x[13,25] + x[14,15] + x[14,16]
   + x[14,17] + x[14,18] + x[14,19] + x[14,20] + x[14,21] + x[14,22]
   + x[14,23] + x[14,24] + x[14,25] + x[15,16] + x[15,17] + x[15,18]
   + x[15,19] + x[15,20] + x[15,21] + x[15,22] + x[15,23] + x[15,24]
   + x[15,25] + x[16,17] + x[16,18] + x[16,19] + x[16,20] + x[16,21]
   + x[16,22] + x[16,23] + x[16,24] + x[16,25] + x[17,18] + x[17,19]
   + x[17,20] + x[17,21] + x[17,22] + x[17,23] + x[17,24] + x[17,25]
   + x[18,19] + x[18,20] + x[18,21] + x[18,22] + x[18,23] + x[18,24]
   + x[18,25] + x[19,20] + x[19,21] + x[19,22] + x[19,23] + x[19,24]
   + x[19,25] + x[20,21] + x[20,22] + x[20,23] + x[20,24] + x[20,25]
   + x[21,22] + x[21,23] + x[21,24] + x[21,25] + x[22,23] + x[22,24]
   + x[22,25] + x[23,24] + x[23,25] + x[24,25] = 24
Bounds
Binaries
 x[1,2] x[1,3] x[1,4] x[1,5] x[1,6] x[1,7] x[1,8] x[1,9] x[1,10] x[1,11]
 x[1,12] x[1,13] x[1,14] x[1,15] x[1,16] x[1,17] x[1,18] x[1,19] x[1,20]
 x[1,21] x[1,22] x[1,23] x[1,24] x[1,25] x[2,3] x[2,4] x[2,5] x[2,6] x[2,7]
 x[2,8] x[2,9] x[2,10] x[2,11] x[2,12] x[2,13] x[2,14] x[2,15] x[2,16]
 x[2,17] x[2,18] x[2,19] x[2,20] x[2,21] x[2,22] x[2,23] x[2,24] x[2,25]
 x[3,4] x[3,5] x[3,6] x[3,7] x[3,8] x[3,9] x[3,10] x[3,11] x[3,12] x[3,13]
 x[3,14] x[3,15] x[3,16] x[3,17] x[3,18] x[3,19] x[3,20] x[3,21] x[3,22]
 x[3,23] x[3,24] x[3,25] x[4,5] x[4,6] x[4,7] x[4,8] x[4,9] x[4,10] x[4,11]
 x[4,12] x[4,13] x[4,14] x[4,15] x[4,16] x[4,17] x[4,18] x[4,19] x[4,20]
 x[4,21] x[4,22] x[4,23] x[4,24] x[4,25] x[5,6] x[5,7] x[5,8] x[5,9]
 x[5,10] x[5,11] x[5,12] x[5,13] x[5,14] x[5,15] x[5,16] x[5,17] x[5,18]
 x[5,19] x[5,20] x[5,21] x[5,22] x[5,23] x[5,24] x[5,25] x[6,7] x[6,8]
 x[6,9] x[6,10] x[6,11] x[6,12] x[6,13] x[6,14] x[6,15] x[6,16] x[6,17]
 x[6,18] x[6,19] x[6,20] x[6,21] x[6,22] x[6,23] x[6,24] x[6,25] x[7,8]
 x[7,9] x[7,10] x[7,11] x[7,12] x[7,13] x[7,14] x[7,15] x[7,16] x[7,17]
 x[7,18] x[7,19] x[7,20] x[7,21] x[7,22] x[7,23] x[7,24] x[7,25] x[8,9]
 x[8,10] x[8,11] x[8,12] x[8,13] x[8,14] x[8,15] x[8,16] x[8,17] x[8,18]
 x[8,19] x[8,20] x[8,21] x[8,22] x[8,23] x[8,24] x[8,25] x[9,10] x[9,11]
 x[9,12] x[9,13] x[9,14] x[9,15] x[9,16] x[9,17] x[9,18] x[9,19] x[9,20]
 x[9,21] x[9,22] x[9,23] x[9,24] x[9,25] x[10,11] x[10,12] x[10,13]
 x[10,14] x[10,15] x[10,16] x[10,17] x[10,18] x[10,19] x[10,20] x[10,21]
 x[10,22] x[10,23] x[10,24] x[10,25] x[11,12] x[11,13] x[11,14] x[11,15]
 x[11,16] x[11,17] x[11,18] x[11,19] x[11,20] x[11,21] x[11,22] x[11,23]
 x[11,24] x[11,25] x[12,13] x[12,14] x[12,15] x[12,16] x[12,17] x[12,18]
 x[12,19] x[12,20] x[12,21] x[12,22] x[12,23] x[12,24] x[12,25] x[13,14]
 x[13,15] x[13,16] x[13,17] x[13,18] x[13,19] x[13,20] x[13,21] x[13,22]
 x[13,23] x[13,24] x[13,25] x[14,15] x[14,16] x[14,17] x[14,18] x[14,19]
 x[14,20] x[14,21] x[14,22] x[14,23] x[14,24] x[14,25] x[15,16] x[15,17]
 x[15,18] x[15,19] x[15,20] x[15,21] x[15,22] x[15,23] x[15,24] x[15,25]
 x[16,17] x[16,18] x[16,19] x[16,20] x[16,21] x[16,22] x[16,23] x[16,24]
 x[16,25] x[17,18] x[17,19] x[17,20] x[17,21] x[17,22] x[17,23] x[17,24]
 x[17,25] x[18,19] x[18,20] x[18,21] x[18,22] x[18,23] x[18,24] x[18,25]
 x[19,20] x[19,21] x[19,22] x[19,23] x[19,24] x[19,25] x[20,21] x[20,22]
 x[20,23] x[20,24] x[20,25] x[21,22] x[21,23] x[21,24] x[21,25] x[22,23]
 x[22,24] x[22,25] x[23,24] x[23,25] x[24,25]
End
